1 3 100 345277.12
1 3 200 328187.19
1 3 300 332036.33
2 3 100 431641.22
2 3 200 445381.89
2 3 300 436043.61
3 3 100 462163.45
3 3 200 448999.88
3 3 300 471892.53
4 3 100 422604.28
4 3 200 446103.53
4 3 300 443984.02
5 3 100 429032.02
5 3 200 407186.51
5 3 300 433586.41
